
Log started (V11.0.0) Wed May 14 15:24:05 2008

Tried aggregator 1 time.
Reduced MIP has 140 rows, 4001 columns, and 8040 nonzeros.
Presolve time =    0.03 sec.
Clique table members: 100.
MIP emphasis: balance optimality and feasibility.
MIP search method: dynamic search.
Parallel mode: none, using 1 thread.
Root relaxation solution time =    0.19 sec.

        Nodes                                         Cuts/
   Node  Left     Objective  IInf  Best Integer     Best Node    ItCnt     Gap

*     0+    0                         4658.0000       96.2722      463   97.93%
*     0+    0                          153.0000       96.2722      463   37.08%
      0     0       97.0000    66      153.0000      Fract: 5      559   36.60%
*     0+    0                          123.0000       97.0000      559   21.14%
      0     0       97.3091    74      123.0000       Cuts: 8      698   20.89%
*     0+    0                          120.0000       97.3091      698   18.91%
      0     0      102.9560    61      120.0000      Cuts: 34     1112   14.20%
      0     0      104.1689    68      120.0000      Cuts: 18     1260   13.19%
      0     0      104.1689    65      120.0000       Cuts: 6     1283   13.19%
*     0+    0                          119.0000      104.1689     1283   12.46%
      0     0      104.1689    62      119.0000       Cuts: 3     1286   12.46%
*     0+    0                          118.0000      104.1689     1286   11.72%
      0     2      104.1689    62      118.0000      104.1689     1286   11.72%
    100    93      105.3473    57      118.0000      104.1737     2760   11.72%
    200   167      105.0000    44      118.0000      104.1737     5262   11.72%
*   300+  229                          116.0000      104.1737     9114   10.20%
    300   231      105.0000    44      116.0000      104.1737     9114   10.20%
    400   298      107.0000    29      116.0000      104.1737    12246   10.20%
    500   366      108.0000    25      116.0000      104.1737    14246   10.20%
*   511+  246                          112.0000      110.0928    15316    1.70%
*   511+  164                          111.0000      110.8165    15332    0.17%

Cover cuts applied:  17
Mixed integer rounding cuts applied:  26
Gomory fractional cuts applied:  1

Solution pool: 9 solutions saved.

MIP - Integer optimal solution:  Objective = 1.1100000000e+002
Solution time =    8.17 sec.  Iterations = 15332  Nodes = 511 (164)


Incumbent solution
Variable Name           Solution Value
Cmax                        111.000000
X_1_10                        1.000000
X_2_20                        1.000000
X_3_38                        1.000000
X_4_34                        1.000000
X_5_33                        1.000000
X_6_15                        1.000000
X_7_33                        1.000000
X_8_8                         1.000000
X_9_25                        1.000000
X_10_13                       1.000000
X_11_38                       1.000000
X_12_18                       1.000000
X_13_15                       1.000000
X_14_33                       1.000000
X_15_33                       1.000000
X_16_4                        1.000000
X_17_1                        1.000000
X_18_33                       1.000000
X_19_22                       1.000000
X_20_4                        1.000000
X_21_40                       1.000000
X_22_6                        1.000000
X_23_34                       1.000000
X_24_33                       1.000000
X_25_33                       1.000000
X_26_19                       1.000000
X_27_27                       1.000000
X_28_19                       1.000000
X_29_5                        1.000000
X_30_7                        1.000000
X_31_37                       1.000000
X_32_18                       1.000000
X_33_19                       1.000000
X_34_31                       1.000000
X_35_34                       1.000000
X_36_34                       1.000000
X_37_33                       1.000000
X_38_17                       1.000000
X_39_32                       1.000000
X_40_4                        1.000000
X_41_19                       1.000000
X_42_31                       1.000000
X_43_34                       1.000000
X_44_34                       1.000000
X_45_21                       1.000000
X_46_2                        1.000000
X_47_18                       1.000000
X_48_33                       1.000000
X_49_20                       1.000000
X_50_19                       1.000000
X_51_39                       1.000000
X_52_12                       1.000000
X_53_23                       1.000000
X_54_28                       1.000000
X_55_9                        1.000000
X_56_36                       1.000000
X_57_14                       1.000000
X_58_2                        1.000000
X_59_6                        1.000000
X_60_36                       1.000000
X_61_34                       1.000000
X_62_24                       1.000000
X_63_33                       1.000000
X_64_30                       1.000000
X_65_35                       1.000000
X_66_31                       1.000000
X_67_11                       1.000000
X_68_18                       1.000000
X_69_34                       1.000000
X_70_29                       1.000000
X_71_34                       1.000000
X_72_2                        1.000000
X_73_33                       1.000000
X_74_31                       1.000000
X_75_21                       1.000000
X_76_25                       1.000000
X_77_36                       1.000000
X_78_5                        1.000000
X_79_3                        1.000000
X_80_19                       1.000000
X_81_33                       1.000000
X_82_34                       1.000000
X_83_16                       1.000000
X_84_33                       1.000000
X_85_36                       1.000000
X_86_27                       1.000000
X_87_34                       1.000000
X_88_16                       1.000000
X_89_40                       1.000000
X_90_25                       1.000000
X_91_18                       1.000000
X_92_34                       1.000000
X_93_26                       1.000000
X_94_18                       1.000000
X_95_40                       1.000000
X_96_20                       1.000000
X_97_22                       1.000000
X_98_19                       1.000000
X_99_36                       1.000000
X_100_34                      1.000000
All other variables in the range 1-4001 are 0.
